language ESSENCE' 1.0
letting noNodes be 8
letting edges be [[1,2],
                  [1,3],
                  [1,4],
                  [1,5],
                  [2,4],
                  [2,5],
                  [2,6],
                  [3,4],
                  [3,7],
                  [4,5],
                  [4,7],
                  [4,8],
                  [5,6],
                  [5,7],
                  [5,8],
                  [6,8],
                  [7,8]]